
Gurobi 7.0.2 (linux64, Python) logging started Fri Apr 21 19:26:40 2017


Gurobi 7.0.2 (linux64, Python) logging started Fri Apr 21 19:36:14 2017


Gurobi 7.0.2 (linux64, Python) logging started Fri Apr 21 19:37:03 2017


Gurobi 7.0.2 (linux64, Python) logging started Fri Apr 21 20:00:02 2017


Gurobi 7.0.2 (linux64, Python) logging started Fri Apr 21 20:45:25 2017


Gurobi 7.0.2 (linux64, Python) logging started Tue May  2 11:56:49 2017


Gurobi 7.0.2 (linux64, Python) logging started Wed May 10 17:51:11 2017


Gurobi 7.0.2 (linux64, Python) logging started Wed May 10 17:53:25 2017


Gurobi 7.0.2 (linux64, Python) logging started Wed May 10 20:12:00 2017


Gurobi 7.0.2 (linux64, Python) logging started Wed May 10 20:12:31 2017


Gurobi 7.0.2 (linux64, Python) logging started Thu May 11 13:42:18 2017


Gurobi 7.0.2 (linux64, Python) logging started Thu May 11 13:43:18 2017


Gurobi 7.0.2 (linux64, Python) logging started Thu May 11 14:03:35 2017


Gurobi 7.0.2 (linux64, Python) logging started Thu May 11 14:07:26 2017


Gurobi 7.0.2 (linux64, Python) logging started Thu May 11 14:07:41 2017

